0 7870545
325 7673920
650 7503386
975 7434275
1300 7371459
1625 7337622
1950 7307898
2275 7258022
2600 7233960
2925 7205763
3250 7182675
3575 7161359
3900 7151033
4225 7140984
4550 7138485
4875 7127553
5200 7125678
5525 7124259
5850 7123419
6175 7122950
6500 7122803
6825 7122719
